data/benchmarks/bayes/90-15-2-q.cnf
p cnf 1065 971
c weights 0.953399 0.046601000000000004 1 1 1 1 1 1 1 1 1 1 1 1 1 1 1 1 1 1 1 1 1 1 1 1 1 1 1 1 1 1 1 1 1 1 1 1 1 1 1 1 1 1 1 1 1 1 1 1 1 1 1 1 1 1 1 1 1 1 1 1 1 1 1 1 1 1 1 1 1 1 1 1 1 1 1 1 1 1 1 1 1 1 1 1 1 1 1 1 1 1 1 1 1 1 1 1 1 1 1 1 1 1 1 1 1 1 1 1 1 1 1 1 1 1 1 1 1 1 1 1 1 1 1 1 1 1 1 1 1 1 1 1 1 1 1 1 1 1 1 1 1 1 1 1 1 1 1 1 1 1 1 1 1 1 1 1 1 1 1 1 1 1 1 1 1 1 1 1 1 1 1 1 1 1 1 1 1 1 1 1 1 1 1 1 1 1 1 1 1 1 1 1 1 1 1 1 1 1 1 1 1 1 1 1 1 1 1 1 1 1 1 1 1 1 1 1 1 1 1 1 1 1 1 1 1 1 1 1 1 1 1 1 1 1 1 1 1 1 1 1 1 1 1 1 1 1 1 1 1 1 1 1 1 1 1 1 1 1 1 1 1 1 1 1 1 1 1 1 1 1 1 1 1 1 1 1 1 1 1 1 1 1 1 1 1 1 1 1 1 1 1 1 1 1 1 1 1 1 1 1 1 1 1 1 1 1 1 1 1 1 1 1 1 1 1 1 1 1 1 1 1 1 1 1 1 1 1 1 1 1 1 1 1 1 1 1 1 1 1 1 1 1 1 1 1 1 1 1 1 1 1 1 1 1 1 1 1 1 1 1 1 1 1 1 1 1 1 1 1 1 1 1 1 1 1 1 1 1 1 1 1 1 1 1 1 1 1 1 1 1 1 1 1 1 1 1 1 1 1 1 1 1 1 1 1 1 1 1 1 1 1 1 1 1 1 1 1 1 1 1 1 1 1 1 1 1 1 1 1 1 1 1 1 1 1 1 1 1 1 1 1 1 1 1 1 1 1 1 0.5 0.5 0.5 0.5 0.5 0.5 0.5 0.5 0.5 0.5 0.5 0.5 0.5 0.5 0.5 0.5 0.5 0.5 0.5 0.5 0.5 0.5 0.5 0.5 0.5 0.5 0.5 0.5 0.210482 0.7895179999999999 0.00150655 0.99849345 0.5 0.5 0.5 0.5 0.5 0.5 0.5 0.5 0.5 0.5 0.5 0.5 0.5 0.5 0.5 0.5 0.5 0.5 0.5 0.5 0.35293 0.64707 0.505588 0.49441199999999996 0.761439 0.23856100000000002 0.693205 0.30679500000000004 0.567079 0.432921 0.29748 0.70252 0.447563 0.5524370000000001 0.0219015 0.9780985 0.5 0.5 0.5 0.5 0.5 0.5 0.5 0.5 0.5 0.5 0.5 0.5 0.5 0.5 0.5 0.5 0.369677 0.630323 0.957016 0.04298400000000002 0.0557162 0.9442838 0.884772 0.115228 0.360845 0.6391549999999999 0.859982 0.14001799999999998 0.387832 0.612168 0.0135966 0.9864034 0.5 0.5 0.5 0.5 0.5 0.5 0.5 0.5 0.5 0.5 0.5 0.5 0.5 0.5 0.5 0.5 0.5 0.5 0.5 0.5 0.5 0.5 0.5 0.5 0.5 0.5 0.5 0.5 0.5 0.5 0.5 0.5 0.5 0.5 0.5 0.5 0.5 0.5 0.5 0.5 0.5 0.5 0.5 0.5 0.5 0.5 0.5 0.5 0.5 0.5 0.5 0.5 0.5 0.5 0.5 0.5 0.5 0.5 0.5 0.5 0.5 0.5 0.5 0.5 0.5 0.5 0.5 0.5 0.5 0.5 0.5 0.5 0.5 0.5 0.5 0.5 0.5 0.5 0.5 0.5 0.5 0.5 0.5 0.5 0.5 0.5 0.5 0.5 0.5 0.5 0.5 0.5 0.603102 0.396898 0.397704 0.6022959999999999 0.608837 0.39116300000000004 0.26884 0.73116 0.5 0.5 0.5 0.5 0.5 0.5 0.5 0.5 0.5 0.5 0.5 0.5 0.5 0.5 0.5 0.5 0.5 0.5 0.5 0.5 0.5 0.5 0.5 0.5 0.5 0.5 0.5 0.5 0.5 0.5 0.5 0.5 0.98758 0.012419999999999987 0.60146 0.39854 0.0344133 0.9655867 0.665705 0.334295 0.5 0.5 0.5 0.5 0.5 0.5 0.5 0.5 0.5 0.5 0.5 0.5 0.5 0.5 0.5 0.5 0.5 0.5 0.5 0.5 0.5 0.5 0.5 0.5 0.5 0.5 0.5 0.5 0.5 0.5 0.5 0.5 0.228282 0.771718 0.509121 0.49087899999999995 0.710746 0.289254 0.0748802 0.9251198 0.5 0.5 0.5 0.5 0.5 0.5 0.5 0.5 0.5 0.5 0.5 0.5 0.5 0.5 0.5 0.5 0.5 0.5 0.5 0.5 0.5 0.5 0.5 0.5 0.5 0.5 0.5 0.5 0.5 0.5 0.5 0.5 0.5 0.5 0.5 0.5 0.777715 0.22228499999999995 0.494513 0.505487 0.838608 0.16139199999999998 0.00599704 0.99400296 0.5 0.5 0.5 0.5 0.5 0.5 0.5 0.5 0.5 0.5 0.5 0.5 0.5 0.5 0.5 0.5 0.5 0.5 0.5 0.5 0.5 0.5 0.5 0.5 0.606675 0.39332500000000004 0.912137 0.08786300000000002 0.560369 0.439631 0.165188 0.834812 0.5 0.5 0.5 0.5 0.5 0.5 0.5 0.5 0.5 0.5 0.5 0.5 0.5 0.5 0.5 0.5 0.5 0.5 0.5 0.5 0.5 0.5 0.5 0.5 0.5 0.5 0.5 0.5 0.5 0.5 0.5 0.5 0.5 0.5 0.5 0.5 0.5 0.5 0.5 0.5 0.398689 0.6013109999999999 0.145398 0.854602 0.892513 0.107487 0.959058 0.040942000000000034 0.5 0.5 0.5 0.5 0.0863159 0.9136841 0.840006 0.15999399999999997 0.750442 0.24955799999999995 0.235255 0.764745 0.5 0.5 0.5 0.5 0.5 0.5 0.5 0.5 0.5 0.5 0.5 0.5 0.5 0.5 0.5 0.5 0.5 0.5 0.5 0.5 0.5 0.5 0.5 0.5 0.787997 0.21200300000000005 0.428016 0.571984 0.466813 0.5331870000000001 0.768373 0.23162700000000003 0.5 0.5 0.5 0.5 0.5 0.5 0.5 0.5 0.5 0.5 0.5 0.5 0.5 0.5 0.5 0.5 0.5 0.5 0.5 0.5 0.5 0.5 0.5 0.5 0.5 0.5 0.5 0.5 0.5 0.5 0.5 0.5 0.720913 0.279087 0.967313 0.03268700000000002 0.162652 0.837348 0.7445 0.25549999999999995 0.5 0.5 0.5 0.5 0.5 0.5 0.5 0.5 0.974428 0.02557200000000004 0.379909 0.620091 0.784986 0.21501400000000004 0.897225 0.10277499999999995 0.5 0.5 0.5 0.5 0.5 0.5 0.5 0.5 0.5 0.5 0.5 0.5 0.5 0.5 0.5 0.5 0.5 0.5 0.5 0.5 0.999356 0.0006439999999999779 0.0406705 0.9593295 0.738011 0.261989 0.951295 0.048705 0.5 0.5 0.5 0.5 0.5 0.5 0.5 0.5 0.5 0.5 0.5 0.5 0.5 0.5 0.5 0.5 0.163527 0.836473 0.462808 0.537192 0.834596 0.165404 0.166439 0.833561 0.740935 0.259065 0.632361 0.36763900000000005 0.903701 0.09629900000000002 0.891642 0.10835799999999995 0.5 0.5 0.5 0.5 0.5 0.5 0.5 0.5 0.5 0.5 0.5 0.5 0.5 0.5 0.5 0.5 0.5 0.5 0.5 0.5 0.5 0.5 0.5 0.5 0.5 0.5 0.5 0.5 0.5 0.5 0.5 0.5 0.5 0.5 0.5 0.5 0.5 0.5 0.5 0.5 0.5 0.5 0.5 0.5 0.5 0.5 0.5 0.5 0.5 0.5 0.5 0.5 0.5 0.5 0.5 0.5 0.5 0.5 0.5 0.5 0.5 0.5 0.5 0.5 0.5 0.5 0.5 0.5 0.5 0.5 0.5 0.5 0.5 0.5 0.5 0.5 0.5 0.5 0.5 0.5 0.5 0.5 0.5 0.5 0.5 0.5 0.5 0.5 0.5 0.5 0.5 0.5 0.503361 0.49663900000000005 0.622406 0.377594 0.250274 0.749726 0.244913 0.7550870000000001 0.5 0.5 0.5 0.5 0.5 0.5 0.5 0.5 0.5 0.5 0.5 0.5 0.5 0.5 0.5 0.5 0.5 0.5 0.5 0.5 0.5 0.5 0.5 0.5 0.5 0.5 0.5 0.5 0.5 0.5 0.5 0.5 0.5 0.5 0.5 0.5 0.5 0.5 0.5 0.5 0.5 0.5 0.5 0.5 0.5 0.5 0.5 0.5 0.5 0.5 0.5 0.5 0.5 0.5 0.5 0.5 0.99753 0.0024699999999999722 0.17135 0.82865 0.809552 0.19044799999999995 0.0540003 0.9459997 0.5 0.5 0.5 0.5 0.5 0.5 0.5 0.5 0.5 0.5 0.5 0.5 0.5 0.5 0.5 0.5 0.5 0.5 0.5 0.5 0.5 0.5 0.5 0.5 0.5 0.5 0.5 0.5 0.5 0.5 0.5 0.5 0.5 0.5 0.5 0.5 0.5 0.5 0.5 0.5 0.5 0.5 0.5 0.5 0.5 0.5 0.5 0.5 0.5 0.5 0.5 0.5 0.5 0.5 0.5 0.5 0.5 0.5 0.5 0.5 0.5 0.5 0.5 0.5 0.5 0.5 0.5 0.5 0.392919 0.607081 0.69513 0.30487 0.22837 0.77163 0.560038 0.43996199999999996 0.5 0.5 0.5 0.5 0.5 0.5 0.5 0.5 0.5 0.5 0.5 0.5 0.5 0.5 0.5 0.5 0.5 0.5 0.5 0.5 0.5 0.5 0.5 0.5 0.5 0.5 0.5 0.5 0.5 0.5 0.5 0.5 0.5 0.5 0.5 0.5 0.5 0.5 0.5 0.5 0.5 0.5 0.5 0.5 0.5 0.5 0.5 0.5 0.5 0.5 0.5 0.5 0.5 0.5 0.5 0.5 0.5 0.5 0.5 0.5 0.5 0.5 0.5 0.5 0.5 0.5 0.5 0.5 0.5 0.5 0.5 0.5 0.5 0.5 0.5 0.5 0.5 0.5 0.5 0.5 0.5 0.5 0.5 0.5 0.5 0.5 0.5 0.5 0.5 0.5 0.5 0.5 0.5 0.5 0.5 0.5 0.5 0.5 0.5 0.5 0.5 0.5 0.5 0.5 0.5 0.5 0.5 0.5 0.658486 0.341514 0.919422 0.08057800000000004 0.612382 0.387618 0.314846 0.685154 0.5 0.5 0.5 0.5 0.5 0.5 0.5 0.5 0.5 0.5 0.5 0.5 0.5 0.5 0.5 0.5 0.5 0.5 0.5 0.5 0.5 0.5 0.5 0.5 0.5 0.5 0.5 0.5 0.5 0.5 0.5 0.5 0.5 0.5 0.5 0.5 0.5 0.5 0.5 0.5 0.5 0.5 0.5 0.5 0.5 0.5 0.5 0.5 0.5 0.5 0.5 0.5 0.5 0.5 0.5 0.5 0.5 0.5 0.5 0.5 0.5 0.5 0.5 0.5 0.5 0.5 0.5 0.5 0.5 0.5 0.5 0.5 0.5 0.5 0.5 0.5 0.5 0.5 0.5 0.5 0.5 0.5 0.5 0.5 0.5 0.5 0.5 0.5 0.5 0.5 0.5 0.5 0.5 0.5 0.5 0.5 0.5 0.5 0.5 0.5 0.5 0.5 0.5 0.5 0.5 0.5 0.5 0.5 0.5 0.5 0.5 0.5 0.5 0.5 0.5 0.5 0.5 0.5 0.5 0.5 0.5 0.5 0.5 0.5 0.5 0.5 0.5 0.5 0.5 0.5 0.5 0.5 0.5 0.5 0.5 0.5 0.5 0.5 0.5 0.5 0.5 0.5 0.5 0.5 0.5 0.5 0.5 0.5 0.5 0.5 0.5 0.5 0.5 0.5 0.5 0.5 0.207488 0.792512 0.230268 0.769732 0.397167 0.602833 0.320878 0.679122 0.5 0.5 0.5 0.5 0.5 0.5 0.5 0.5 0.5 0.5 0.5 0.5 0.5 0.5 0.5 0.5 0.5 0.5 0.5 0.5 0.593666 0.406334 0.0263817 0.9736183 0.0169825 0.9830175 0.330799 0.6692009999999999 0.5 0.5 0.5 0.5 0.5 0.5 0.5 0.5 0.5 0.5 0.5 0.5 0.5 0.5 0.5 0.5 0.5 0.5 0.5 0.5 0.5 0.5 0.5 0.5 0.5 0.5 0.5 0.5 0.5 0.5 0.5 0.5 0.5 0.5 0.5 0.5 0.5 0.5 0.5 0.5 0.5 0.5 0.5 0.5 0.5 0.5 0.5 0.5 0.5 0.5 0.5 0.5 0.5 0.5 0.5 0.5 0.941963 0.058037000000000005 0.179712 0.820288 0.216628 0.783372 0.710931 0.289069 0.5 0.5 0.5 0.5 0.5 0.5 0.5 0.5 0.5 0.5 0.5 0.5 0.5 0.5 0.5 0.5 0.5 0.5 0.5 0.5 0.5 0.5 0.5 0.5 0.5 0.5 0.5 0.5 0.5 0.5 0.5 0.5 0.97753 0.02246999999999999 0.596002 0.40399799999999997 0.462891 0.5371090000000001 0.358013 0.641987 0.5 0.5 0.5 0.5 0.5 0.5 0.5 0.5 0.5 0.5 0.5 0.5 0.5 0.5 0.5 0.5 0.5 0.5 0.5 0.5 0.5 0.5 0.5 0.5 0.5 0.5 0.5 0.5 0.5 0.5 0.5 0.5 0.5 0.5 0.5 0.5 0.5 0.5 0.5 0.5 0.5 0.5 0.5 0.5 0.5 0.5 0.5 0.5 0.5 0.5 0.5 0.5 0.5 0.5 0.5 0.5 0.5 0.5 0.5 0.5 0.5 0.5 0.5 0.5 0.5 0.5 0.5 0.5 0.5 0.5 0.5 0.5 0.5 0.5 0.5 0.5 0.5 0.5 0.5 0.5 0.5 0.5 0.5 0.5 0.5 0.5 0.5 0.5 0.5 0.5 0.5 0.5 0.5 0.5 0.5 0.5 0.5 0.5 0.5 0.5 0.620165 0.37983500000000003 0.980966 0.019033999999999995 0.498641 0.501359 0.812811 0.18718900000000005 0.5 0.5 0.5 0.5 0.5 0.5 0.5 0.5 0.5 0.5 0.5 0.5 0.5 0.5 0.5 0.5 0.5 0.5 0.5 0.5 0.224904 0.775096 0.563838 0.43616200000000005 0.424741 0.575259 0.917678 0.082322 0.5 0.5 0.5 0.5 0.5 0.5 0.5 0.5 0.5 0.5 0.5 0.5 0.5 0.5 0.5 0.5 0.5 0.5 0.5 0.5 0.5 0.5 0.5 0.5 0.5 0.5 0.5 0.5 0.5 0.5 0.5 0.5 0.5 0.5 0.5 0.5 0.5 0.5 0.5 0.5 0.5 0.5 0.5 0.5 0.5 0.5 0.5 0.5 0.5 0.5 0.5 0.5 0.5 0.5 0.5 0.5 0.5 0.5 0.5 0.5 0.5 0.5 0.5 0.5 0.5 0.5 0.5 0.5 0.5 0.5 0.5 0.5 0.5 0.5 0.5 0.5 0.5 0.5 0.5 0.5 0.5 0.5 0.5 0.5 0.5 0.5 0.5 0.5 0.5 0.5 0.5 0.5 0.5 0.5 0.5 0.5 0.5 0.5 0.5 0.5 0.5 0.5 0.5 0.5 0.5 0.5 0.5 0.5 0.5 0.5 0.5 0.5 0.5 0.5 0.5 0.5 0.5 0.5 0.5 0.5 0.5 0.5 0.5 0.5 0.5 0.5 0.5 0.5 0.5 0.5 0.5 0.5 0.5 0.5 0.5 0.5 0.5 0.5 0.5 0.5 0.5 0.5 0.5 0.5 0.5 0.5 0.5 0.5 0.5 0.5 0.5 0.5 0.5 0.5 0.5 0.5 0.5 0.5 0.5 0.5 0.5 0.5 0.5 0.5 0.5 0.5 0.5 0.5 0.5 0.5 0.5 0.5 0.5 0.5 0.5 0.5 0.5 0.5 0.5 0.5 0.5 0.5 0.5 0.5 0.5 0.5 0.5 0.5 0.5 0.5 0.5 0.5 0.5 0.5 0.5 0.5 0.166649 0.833351 0.807203 0.192797 0.317078 0.682922 0.677596 0.322404 0.218334 0.781666 0.452732 0.547268 0.233645 0.766355 0.548764 0.45123599999999997 0.5 0.5 0.5 0.5 0.690642 0.309358 0.920361 0.07963900000000002 0.724157 0.27584299999999995 0.390028 0.609972 0.5 0.5 0.5 0.5 0.5 0.5 0.5 0.5 0.0945729 0.9054271 0.441464 0.5585359999999999 0.825015 0.17498499999999995 0.92472 0.07528000000000001 0.5 0.5 0.5 0.5 0.5 0.5 0.5 0.5 0.5 0.5 0.5 0.5 0.5 0.5 0.5 0.5 0.5 0.5 0.5 0.5 0.5 0.5 0.5 0.5 0.5 0.5 0.5 0.5 0.5 0.5 0.5 0.5 0.265941 0.734059 0.902861 0.09713899999999998 0.166319 0.833681 0.721383 0.278617 0.5 0.5 0.5 0.5 0.5 0.5 0.5 0.5 0.5 0.5 0.5 0.5 0.5 0.5 0.5 0.5 0.5 0.5 0.5 0.5 0.5 0.5 0.5 0.5 0.5 0.5 0.5 0.5 0.5 0.5 0.5 0.5 0.5 0.5 0.5 0.5 0.5 0.5 0.5 0.5 0.5 0.5 0.5 0.5 0.5 0.5 0.5 0.5
-1 2 0
1 -2 0
-2 3 0
2 -3 0
-3 -4 0
3 4 0
-4 -5 0
4 5 0
-5 -6 0
5 6 0
-6 -7 0
6 7 0
-7 -8 0
7 8 0
-8 -240 9 0
-8 240 -9 0
8 -241 9 0
8 241 -9 0
-9 -10 0
9 10 0
-10 11 0
10 -11 0
-11 -12 0
11 12 0
-12 -13 0
12 13 0
-13 14 0
13 -14 0
-14 -252 15 0
-14 252 -15 0
14 -253 15 0
14 253 -15 0
-1 -254 16 0
-1 254 -16 0
1 -255 16 0
1 255 -16 0
-16 -2 -256 17 0
-16 -2 256 -17 0
-16 2 -257 17 0
-16 2 257 -17 0
16 -2 -258 17 0
16 -2 258 -17 0
16 2 -259 17 0
16 2 259 -17 0
-17 -3 18 0
-17 3 -18 0
17 -3 -18 0
17 3 -18 0
-18 -4 -19 0
-18 4 -19 0
18 -4 19 0
18 4 19 0
-19 -5 -268 20 0
-19 -5 268 -20 0
-19 5 -269 20 0
-19 5 269 -20 0
19 -5 -270 20 0
19 -5 270 -20 0
19 5 -271 20 0
19 5 271 -20 0
-20 -6 -272 21 0
-20 -6 272 -21 0
-20 6 -273 21 0
-20 6 273 -21 0
20 -6 -274 21 0
20 -6 274 -21 0
20 6 -275 21 0
20 6 275 -21 0
-21 -7 22 0
-21 7 -22 0
21 -7 22 0
21 7 22 0
-22 -8 -23 0
-22 8 -23 0
22 -8 23 0
22 8 -23 0
-23 -9 -24 0
-23 9 24 0
23 -9 -24 0
23 9 -24 0
-24 -10 -25 0
-24 10 -25 0
24 -10 -25 0
24 10 25 0
-25 -11 -26 0
-25 11 26 0
25 -11 26 0
25 11 -26 0
-26 -12 27 0
-26 12 -27 0
26 -12 -27 0
26 12 -27 0
-27 -13 28 0
-27 13 -28 0
27 -13 -28 0
27 13 -28 0
-28 -14 -29 0
-28 14 -29 0
28 -14 -29 0
28 14 29 0
-29 -15 -30 0
-29 15 30 0
29 -15 30 0
29 15 30 0
-16 -31 0
16 31 0
-31 -17 32 0
-31 17 32 0
31 -17 -32 0
31 17 32 0
-32 -18 33 0
-32 18 33 0
32 -18 -33 0
32 18 33 0
-33 -19 -322 34 0
-33 -19 322 -34 0
-33 19 -323 34 0
-33 19 323 -34 0
33 -19 -324 34 0
33 -19 324 -34 0
33 19 -325 34 0
33 19 325 -34 0
-34 -20 -35 0
-34 20 35 0
34 -20 -35 0
34 20 35 0
-35 -21 36 0
-35 21 36 0
35 -21 -36 0
35 21 -36 0
-36 -22 -37 0
-36 22 37 0
36 -22 37 0
36 22 -37 0
-37 -23 -38 0
-37 23 38 0
37 -23 38 0
37 23 38 0
-38 -24 -342 39 0
-38 -24 342 -39 0
-38 24 -343 39 0
-38 24 343 -39 0
38 -24 -344 39 0
38 -24 344 -39 0
38 24 -345 39 0
38 24 345 -39 0
-39 -25 -40 0
-39 25 -40 0
39 -25 40 0
39 25 -40 0
-40 -26 -41 0
-40 26 41 0
40 -26 -41 0
40 26 -41 0
-41 -27 -42 0
-41 27 42 0
41 -27 -42 0
41 27 -42 0
-42 -28 -43 0
-42 28 -43 0
42 -28 43 0
42 28 43 0
-43 -29 -362 44 0
-43 -29 362 -44 0
-43 29 -363 44 0
-43 29 363 -44 0
43 -29 -364 44 0
43 -29 364 -44 0
43 29 -365 44 0
43 29 365 -44 0
-44 -30 45 0
-44 30 -45 0
44 -30 45 0
44 30 45 0
-31 46 0
31 -46 0
-46 -32 47 0
-46 32 -47 0
46 -32 -47 0
46 32 47 0
-47 -33 48 0
-47 33 48 0
47 -33 48 0
47 33 -48 0
-48 -34 49 0
-48 34 -49 0
48 -34 -49 0
48 34 49 0
-49 -35 -384 50 0
-49 -35 384 -50 0
-49 35 -385 50 0
-49 35 385 -50 0
49 -35 -386 50 0
49 -35 386 -50 0
49 35 -387 50 0
49 35 387 -50 0
-50 -36 -51 0
-50 36 -51 0
50 -36 -51 0
50 36 51 0
-51 -37 52 0
-51 37 52 0
51 -37 52 0
51 37 -52 0
-52 -38 53 0
-52 38 53 0
52 -38 -53 0
52 38 -53 0
-53 -39 -400 54 0
-53 -39 400 -54 0
-53 39 -401 54 0
-53 39 401 -54 0
53 -39 -402 54 0
53 -39 402 -54 0
53 39 -403 54 0
53 39 403 -54 0
-54 -40 55 0
-54 40 -55 0
54 -40 55 0
54 40 55 0
-55 -41 56 0
-55 41 -56 0
55 -41 -56 0
55 41 56 0
-56 -42 -57 0
-56 42 57 0
56 -42 -57 0
56 42 57 0
-57 -43 -58 0
-57 43 -58 0
57 -43 58 0
57 43 -58 0
-58 -44 -59 0
-58 44 59 0
58 -44 -59 0
58 44 -59 0
-59 -45 -424 60 0
-59 -45 424 -60 0
-59 45 -425 60 0
-59 45 425 -60 0
59 -45 -426 60 0
59 -45 426 -60 0
59 45 -427 60 0
59 45 427 -60 0
-46 61 0
46 -61 0
-61 -47 -430 62 0
-61 -47 430 -62 0
-61 47 -431 62 0
-61 47 431 -62 0
61 -47 -432 62 0
61 -47 432 -62 0
61 47 -433 62 0
61 47 433 -62 0
-62 -48 -63 0
-62 48 -63 0
62 -48 63 0
62 48 -63 0
-63 -49 -64 0
-63 49 -64 0
63 -49 64 0
63 49 -64 0
-64 -50 -65 0
-64 50 -65 0
64 -50 -65 0
64 50 65 0
-65 -51 -446 66 0
-65 -51 446 -66 0
-65 51 -447 66 0
-65 51 447 -66 0
65 -51 -448 66 0
65 -51 448 -66 0
65 51 -449 66 0
65 51 449 -66 0
-66 -52 -67 0
-66 52 67 0
66 -52 -67 0
66 52 67 0
-67 -53 -68 0
-67 53 68 0
67 -53 68 0
67 53 68 0
-68 -54 69 0
-68 54 -69 0
68 -54 -69 0
68 54 69 0
-69 -55 -70 0
-69 55 70 0
69 -55 -70 0
69 55 -70 0
-70 -56 -466 71 0
-70 -56 466 -71 0
-70 56 -467 71 0
-70 56 467 -71 0
70 -56 -468 71 0
70 -56 468 -71 0
70 56 -469 71 0
70 56 469 -71 0
-71 -57 -72 0
-71 57 -72 0
71 -57 72 0
71 57 -72 0
-72 -58 -474 73 0
-72 -58 474 -73 0
-72 58 -475 73 0
-72 58 475 -73 0
72 -58 -476 73 0
72 -58 476 -73 0
72 58 -477 73 0
72 58 477 -73 0
-73 -59 74 0
-73 59 -74 0
73 -59 74 0
73 59 -74 0
-74 -60 -75 0
-74 60 -75 0
74 -60 75 0
74 60 -75 0
-61 -76 0
61 76 0
-76 -62 -488 77 0
-76 -62 488 -77 0
-76 62 -489 77 0
-76 62 489 -77 0
76 -62 -490 77 0
76 -62 490 -77 0
76 62 -491 77 0
76 62 491 -77 0
-77 -63 78 0
-77 63 78 0
77 -63 -78 0
77 63 78 0
-78 -64 79 0
-78 64 -79 0
78 -64 -79 0
78 64 -79 0
-79 -65 -500 80 0
-79 -65 500 -80 0
-79 65 -501 80 0
-79 65 501 -80 0
79 -65 -502 80 0
79 -65 502 -80 0
79 65 -503 80 0
79 65 503 -80 0
-80 -66 -504 81 0
-80 -66 504 -81 0
-80 66 -505 81 0
-80 66 505 -81 0
80 -66 -506 81 0
80 -66 506 -81 0
80 66 -507 81 0
80 66 507 -81 0
-81 -67 82 0
-81 67 -82 0
81 -67 -82 0
81 67 -82 0
-82 -68 -83 0
-82 68 83 0
82 -68 83 0
82 68 83 0
-83 -69 -84 0
-83 69 -84 0
83 -69 -84 0
83 69 84 0
-84 -70 85 0
-84 70 -85 0
84 -70 85 0
84 70 85 0
-85 -71 86 0
-85 71 86 0
85 -71 86 0
85 71 -86 0
-86 -72 -87 0
-86 72 87 0
86 -72 -87 0
86 72 87 0
-87 -73 88 0
-87 73 -88 0
87 -73 -88 0
87 73 -88 0
-88 -74 -89 0
-88 74 89 0
88 -74 89 0
88 74 89 0
-89 -75 90 0
-89 75 90 0
89 -75 -90 0
89 75 -90 0
-76 91 0
76 -91 0
-91 -77 -92 0
-91 77 92 0
91 -77 92 0
91 77 92 0
-92 -78 -93 0
-92 78 -93 0
92 -78 93 0
92 78 -93 0
-93 -79 -554 94 0
-93 -79 554 -94 0
-93 79 -555 94 0
-93 79 555 -94 0
93 -79 -556 94 0
93 -79 556 -94 0
93 79 -557 94 0
93 79 557 -94 0
-94 -80 95 0
-94 80 95 0
94 -80 -95 0
94 80 95 0
-95 -81 96 0
-95 81 96 0
95 -81 -96 0
95 81 96 0
-96 -82 97 0
-96 82 97 0
96 -82 -97 0
96 82 -97 0
-97 -83 98 0
-97 83 -98 0
97 -83 98 0
97 83 98 0
-98 -84 -99 0
-98 84 99 0
98 -84 99 0
98 84 99 0
-99 -85 100 0
-99 85 -100 0
99 -85 -100 0
99 85 -100 0
-100 -86 -101 0
-100 86 -101 0
100 -86 101 0
100 86 101 0
-101 -87 -586 102 0
-101 -87 586 -102 0
-101 87 -587 102 0
-101 87 587 -102 0
101 -87 -588 102 0
101 -87 588 -102 0
101 87 -589 102 0
101 87 589 -102 0
-102 -88 -103 0
-102 88 -103 0
102 -88 103 0
102 88 -103 0
-103 -89 104 0
-103 89 -104 0
103 -89 -104 0
103 89 -104 0
-104 -90 105 0
-104 90 -105 0
104 -90 -105 0
104 90 105 0
-91 106 0
91 -106 0
-106 -92 -107 0
-106 92 -107 0
106 -92 107 0
106 92 -107 0
-107 -93 108 0
-107 93 -108 0
107 -93 108 0
107 93 108 0
-108 -94 109 0
-108 94 -109 0
108 -94 -109 0
108 94 109 0
-109 -95 -110 0
-109 95 -110 0
109 -95 110 0
109 95 -110 0
-110 -96 -111 0
-110 96 111 0
110 -96 111 0
110 96 -111 0
-111 -97 -624 112 0
-111 -97 624 -112 0
-111 97 -625 112 0
-111 97 625 -112 0
111 -97 -626 112 0
111 -97 626 -112 0
111 97 -627 112 0
111 97 627 -112 0
-112 -98 113 0
-112 98 -113 0
112 -98 -113 0
112 98 -113 0
-113 -99 114 0
-113 99 114 0
113 -99 -114 0
113 99 -114 0
-114 -100 115 0
-114 100 -115 0
114 -100 115 0
114 100 115 0
-115 -101 116 0
-115 101 116 0
115 -101 -116 0
115 101 -116 0
-116 -102 117 0
-116 102 -117 0
116 -102 -117 0
116 102 -117 0
-117 -103 118 0
-117 103 -118 0
117 -103 -118 0
117 103 118 0
-118 -104 -119 0
-118 104 -119 0
118 -104 119 0
118 104 -119 0
-119 -105 -120 0
-119 105 120 0
119 -105 120 0
119 105 120 0
-106 121 0
106 -121 0
-121 -107 122 0
-121 107 122 0
121 -107 122 0
121 107 -122 0
-122 -108 123 0
-122 108 123 0
122 -108 -123 0
122 108 123 0
-123 -109 -124 0
-123 109 124 0
123 -109 124 0
123 109 -124 0
-124 -110 -125 0
-124 110 -125 0
124 -110 -125 0
124 110 125 0
-125 -111 126 0
-125 111 126 0
125 -111 126 0
125 111 -126 0
-126 -112 -682 127 0
-126 -112 682 -127 0
-126 112 -683 127 0
-126 112 683 -127 0
126 -112 -684 127 0
126 -112 684 -127 0
126 112 -685 127 0
126 112 685 -127 0
-127 -113 128 0
-127 113 -128 0
127 -113 -128 0
127 113 -128 0
-128 -114 129 0
-128 114 129 0
128 -114 -129 0
128 114 129 0
-129 -115 -130 0
-129 115 -130 0
129 -115 130 0
129 115 130 0
-130 -116 131 0
-130 116 -131 0
130 -116 131 0
130 116 -131 0
-131 -117 132 0
-131 117 132 0
131 -117 -132 0
131 117 132 0
-132 -118 133 0
-132 118 133 0
132 -118 -133 0
132 118 133 0
-133 -119 -134 0
-133 119 134 0
133 -119 134 0
133 119 -134 0
-134 -120 135 0
-134 120 135 0
134 -120 -135 0
134 120 -135 0
-121 136 0
121 -136 0
-136 -122 -137 0
-136 122 -137 0
136 -122 137 0
136 122 -137 0
-137 -123 -138 0
-137 123 -138 0
137 -123 138 0
137 123 138 0
-138 -124 -139 0
-138 124 -139 0
138 -124 -139 0
138 124 139 0
-139 -125 -140 0
-139 125 -140 0
139 -125 -140 0
139 125 140 0
-140 -126 141 0
-140 126 -141 0
140 -126 -141 0
140 126 141 0
-141 -127 142 0
-141 127 -142 0
141 -127 -142 0
141 127 -142 0
-142 -128 -143 0
-142 128 143 0
142 -128 143 0
142 128 143 0
-143 -129 -144 0
-143 129 144 0
143 -129 144 0
143 129 144 0
-144 -130 -145 0
-144 130 145 0
144 -130 145 0
144 130 -145 0
-145 -131 146 0
-145 131 -146 0
145 -131 146 0
145 131 -146 0
-146 -132 -147 0
-146 132 147 0
146 -132 -147 0
146 132 -147 0
-147 -133 -764 148 0
-147 -133 764 -148 0
-147 133 -765 148 0
-147 133 765 -148 0
147 -133 -766 148 0
147 -133 766 -148 0
147 133 -767 148 0
147 133 767 -148 0
-148 -134 -149 0
-148 134 -149 0
148 -134 149 0
148 134 149 0
-149 -135 -150 0
-149 135 150 0
149 -135 150 0
149 135 150 0
-136 -151 0
136 151 0
-151 -137 -778 152 0
-151 -137 778 -152 0
-151 137 -779 152 0
-151 137 779 -152 0
151 -137 -780 152 0
151 -137 780 -152 0
151 137 -781 152 0
151 137 781 -152 0
-152 -138 -153 0
-152 138 153 0
152 -138 153 0
152 138 -153 0
-153 -139 -154 0
-153 139 -154 0
153 -139 154 0
153 139 154 0
-154 -140 155 0
-154 140 -155 0
154 -140 155 0
154 140 -155 0
-155 -141 156 0
-155 141 156 0
155 -141 -156 0
155 141 -156 0
-156 -142 157 0
-156 142 157 0
156 -142 157 0
156 142 -157 0
-157 -143 158 0
-157 143 158 0
157 -143 -158 0
157 143 158 0
-158 -144 159 0
-158 144 159 0
158 -144 -159 0
158 144 159 0
-159 -145 -810 160 0
-159 -145 810 -160 0
-159 145 -811 160 0
-159 145 811 -160 0
159 -145 -812 160 0
159 -145 812 -160 0
159 145 -813 160 0
159 145 813 -160 0
-160 -146 161 0
-160 146 -161 0
160 -146 161 0
160 146 -161 0
-161 -147 162 0
-161 147 -162 0
161 -147 162 0
161 147 162 0
-162 -148 163 0
-162 148 -163 0
162 -148 -163 0
162 148 -163 0
-163 -149 164 0
-163 149 164 0
163 -149 -164 0
163 149 164 0
-164 -150 -830 165 0
-164 -150 830 -165 0
-164 150 -831 165 0
-164 150 831 -165 0
164 -150 -832 165 0
164 -150 832 -165 0
164 150 -833 165 0
164 150 833 -165 0
-151 -166 0
151 166 0
-166 -152 167 0
-166 152 167 0
166 -152 -167 0
166 152 167 0
-167 -153 -168 0
-167 153 -168 0
167 -153 -168 0
167 153 168 0
-168 -154 -169 0
-168 154 169 0
168 -154 -169 0
168 154 -169 0
-169 -155 -170 0
-169 155 -170 0
169 -155 -170 0
169 155 170 0
-170 -156 171 0
-170 156 -171 0
170 -156 171 0
170 156 171 0
-171 -157 172 0
-171 157 -172 0
171 -157 172 0
171 157 172 0
-172 -158 -173 0
-172 158 -173 0
172 -158 173 0
172 158 173 0
-173 -159 174 0
-173 159 -174 0
173 -159 174 0
173 159 -174 0
-174 -160 -175 0
-174 160 175 0
174 -160 -175 0
174 160 -175 0
-175 -161 176 0
-175 161 -176 0
175 -161 -176 0
175 161 176 0
-176 -162 -177 0
-176 162 -177 0
176 -162 177 0
176 162 177 0
-177 -163 178 0
-177 163 -178 0
177 -163 -178 0
177 163 -178 0
-178 -164 -884 179 0
-178 -164 884 -179 0
-178 164 -885 179 0
-178 164 885 -179 0
178 -164 -886 179 0
178 -164 886 -179 0
178 164 -887 179 0
178 164 887 -179 0
-179 -165 180 0
-179 165 -180 0
179 -165 -180 0
179 165 180 0
-166 181 0
166 -181 0
-181 -167 -182 0
-181 167 182 0
181 -167 182 0
181 167 -182 0
-182 -168 -898 183 0
-182 -168 898 -183 0
-182 168 -899 183 0
-182 168 899 -183 0
182 -168 -900 183 0
182 -168 900 -183 0
182 168 -901 183 0
182 168 901 -183 0
-183 -169 -184 0
-183 169 184 0
183 -169 -184 0
183 169 -184 0
-184 -170 -185 0
-184 170 -185 0
184 -170 -185 0
184 170 185 0
-185 -171 186 0
-185 171 -186 0
185 -171 186 0
185 171 -186 0
-186 -172 187 0
-186 172 187 0
186 -172 -187 0
186 172 -187 0
-187 -173 -188 0
-187 173 -188 0
187 -173 188 0
187 173 -188 0
-188 -174 -189 0
-188 174 189 0
188 -174 -189 0
188 174 -189 0
-189 -175 190 0
-189 175 -190 0
189 -175 -190 0
189 175 190 0
-190 -176 191 0
-190 176 191 0
190 -176 -191 0
190 176 191 0
-191 -177 -192 0
-191 177 192 0
191 -177 192 0
191 177 192 0
-192 -178 -193 0
-192 178 -193 0
192 -178 -193 0
192 178 193 0
-193 -179 -194 0
-193 179 -194 0
193 -179 -194 0
193 179 194 0
-194 -180 -195 0
-194 180 195 0
194 -180 195 0
194 180 -195 0
-181 196 0
181 -196 0
-196 -182 197 0
-196 182 -197 0
196 -182 -197 0
196 182 -197 0
-197 -183 198 0
-197 183 198 0
197 -183 198 0
197 183 -198 0
-198 -184 -199 0
-198 184 199 0
198 -184 -199 0
198 184 -199 0
-199 -185 -200 0
-199 185 -200 0
199 -185 -200 0
199 185 200 0
-200 -186 -201 0
-200 186 201 0
200 -186 -201 0
200 186 -201 0
-201 -187 202 0
-201 187 -202 0
201 -187 202 0
201 187 -202 0
-202 -188 203 0
-202 188 -203 0
202 -188 -203 0
202 188 -203 0
-203 -189 204 0
-203 189 204 0
203 -189 204 0
203 189 -204 0
-204 -190 205 0
-204 190 205 0
204 -190 -205 0
204 190 205 0
-205 -191 -206 0
-205 191 206 0
205 -191 -206 0
205 191 206 0
-206 -192 -207 0
-206 192 207 0
206 -192 -207 0
206 192 -207 0
-207 -193 208 0
-207 193 -208 0
207 -193 -208 0
207 193 208 0
-208 -194 -1000 209 0
-208 -194 1000 -209 0
-208 194 -1001 209 0
-208 194 1001 -209 0
208 -194 -1002 209 0
208 -194 1002 -209 0
208 194 -1003 209 0
208 194 1003 -209 0
-209 -195 -1004 210 0
-209 -195 1004 -210 0
-209 195 -1005 210 0
-209 195 1005 -210 0
209 -195 -1006 210 0
209 -195 1006 -210 0
209 195 -1007 210 0
209 195 1007 -210 0
-196 -211 0
196 211 0
-211 -197 -1010 212 0
-211 -197 1010 -212 0
-211 197 -1011 212 0
-211 197 1011 -212 0
211 -197 -1012 212 0
211 -197 1012 -212 0
211 197 -1013 212 0
211 197 1013 -212 0
-212 -198 -213 0
-212 198 -213 0
212 -198 213 0
212 198 -213 0
-213 -199 -1018 214 0
-213 -199 1018 -214 0
-213 199 -1019 214 0
-213 199 1019 -214 0
213 -199 -1020 214 0
213 -199 1020 -214 0
213 199 -1021 214 0
213 199 1021 -214 0
-214 -200 215 0
-214 200 -215 0
214 -200 -215 0
214 200 -215 0
-215 -201 216 0
-215 201 216 0
215 -201 216 0
215 201 -216 0
-216 -202 217 0
-216 202 217 0
216 -202 -217 0
216 202 -217 0
-217 -203 -218 0
-217 203 -218 0
217 -203 218 0
217 203 218 0
-218 -204 -1038 219 0
-218 -204 1038 -219 0
-218 204 -1039 219 0
-218 204 1039 -219 0
218 -204 -1040 219 0
218 -204 1040 -219 0
218 204 -1041 219 0
218 204 1041 -219 0
-219 -205 -220 0
-219 205 -220 0
219 -205 -220 0
219 205 220 0
-220 -206 221 0
-220 206 -221 0
220 -206 221 0
220 206 221 0
-221 -207 -222 0
-221 207 -222 0
221 -207 222 0
221 207 222 0
-222 -208 -223 0
-222 208 223 0
222 -208 -223 0
222 208 -223 0
-223 -209 -224 0
-223 209 -224 0
223 -209 224 0
223 209 224 0
-224 -210 225 0
-224 210 225 0
224 -210 225 0
224 210 -225 0
225 0
