data/benchmarks/bayes/90-15-2-q.gr
p tw 1065 1000
166 181
198 213
15 30
67 68
47 62
77 490
99 100
164 885
59 73
24 344
107 122
159 160
139 154
8 9
40 41
80 504
199 214
48 63
100 101
73 474
80 95
132 133
79 554
92 106
140 155
192 193
172 187
41 42
168 900
73 74
184 198
33 47
81 96
133 134
165 831
14 15
125 139
173 188
22 37
74 75
137 778
106 107
66 80
114 129
166 167
70 468
65 502
47 48
158 172
206 221
7 21
55 70
107 108
159 811
213 1020
99 113
179 887
147 162
151 779
199 200
48 49
80 81
191 205
53 402
40 54
140 141
19 269
133 767
132 146
152 780
66 448
81 82
49 386
195 1007
73 87
173 174
59 427
22 23
111 626
94 555
165 179
14 28
114 115
76 488
210 1004
183 898
206 207
55 56
198 212
58 476
47 61
77 489
147 148
164 884
24 343
60 427
207 208
139 153
80 503
21 36
194 1001
199 213
127 682
80 94
150 833
113 128
172 186
205 220
54 69
181 182
182 901
165 830
146 161
209 1004
14 252
173 187
39 345
93 554
87 102
65 501
214 215
15 253
179 194
28 43
206 220
148 764
62 432
213 1019
88 103
120 135
21 22
8 241
151 778
147 161
180 195
29 44
61 76
113 114
73 477
121 136
133 766
153 168
51 449
205 206
2 17
54 55
66 447
49 385
62 77
94 109
146 147
59 426
154 169
47 433
3 18
35 50
87 88
147 767
95 110
127 142
179 180
28 29
187 202
219 1039
36 51
88 89
68 83
58 475
112 684
128 143
160 175
29 30
61 62
178 885
6 275
21 35
38 344
21 273
69 84
121 122
101 116
153 154
194 1000
2 3
113 127
150 832
161 176
213 214
204 1041
72 476
10 25
62 63
94 95
205 219
2 259
54 68
102 117
154 155
13 27
3 4
35 36
146 160
209 1003
194 209
105 119
197 1010
43 58
95 96
164 833
127 128
87 101
76 491
135 150
187 188
36 37
68 69
87 586
179 193
28 42
76 91
128 129
79 502
62 431
160 161
120 134
212 1013
168 183
220 221
79 93
69 70
101 102
161 162
20 34
10 11
127 685
153 167
2 16
19 325
102 103
94 108
194 195
53 67
43 44
47 432
209 1007
35 49
93 557
147 766
44 363
127 141
17 257
86 100
76 77
9 24
219 1038
160 812
68 82
112 683
168 169
27 41
160 174
42 57
6 274
178 884
38 343
21 272
101 115
134 149
60 74
204 1040
208 1001
72 475
126 684
2 258
56 467
75 90
209 1002
145 810
16 31
164 832
218 1041
108 123
34 323
9 10
5 268
49 64
186 200
79 501
62 430
109 124
212 1012
42 43
201 216
82 97
134 135
97 625
142 157
20 271
23 38
19 324
83 98
115 130
29 365
65 449
102 587
16 17
175 190
56 71
108 109
193 207
116 131
147 765
61 433
44 362
17 256
49 50
208 223
54 403
57 72
87 589
109 110
89 104
160 811
167 182
149 164
201 202
50 51
30 45
82 83
81 505
42 56
90 105
142 143
200 215
23 24
134 148
182 197
20 275
208 1000
83 84
126 683
141 156
115 116
56 466
75 89
123 138
175 176
34 48
24 25
66 507
56 57
16 259
199 1018
64 79
116 117
174 189
218 1040
108 122
34 322
156 171
67 81
208 209
39 400
57 58
71 469
89 90
167 168
211 1010
49 63
159 173
97 112
149 150
8 22
207 222
189 204
212 1011
35 384
100 114
148 163
200 201
45 425
82 96
192 206
97 624
182 183
41 55
214 1020
31 32
141 142
20 270
23 37
133 147
123 124
181 196
50 387
115 129
29 364
215 216
102 586
74 88
33 325
16 254
64 65
122 137
174 175
112 627
145 813
56 70
156 157
15 29
5 6
107 121
97 98
54 402
43 365
167 181
89 103
189 190
48 62
148 149
30 44
140 154
62 491
63 78
81 504
168 899
200 214
222 223
81 95
101 589
4 19
20 274
141 155
22 36
122 123
66 506
114 128
16 258
37 52
70 467
174 188
55 69
159 810
71 468
179 886
70 85
80 507
207 221
53 401
19 268
11 26
63 64
79 557
148 162
152 779
45 424
4 5
195 1006
214 1019
20 269
44 59
111 625
94 554
50 386
137 781
37 38
1 255
33 324
122 136
196 211
155 170
112 626
199 1021
77 488
96 111
18 33
24 342
60 426
70 71
130 131
43 364
80 502
188 203
11 12
170 185
129 144
62 490
163 164
168 898
44 45
203 218
101 588
182 900
162 177
39 344
144 159
196 197
103 118
155 156
210 1007
183 901
70 466
65 500
137 138
15 252
195 210
96 97
18 19
177 192
213 1018
88 102
136 151
164 887
188 189
179 885
8 240
180 194
118 133
170 171
29 43
80 506
53 400
77 92
129 130
210 225
73 476
111 112
79 556
133 765
51 448
152 778
169 184
66 446
221 222
151 166
203 204
49 384
62 76
110 125
162 163
195 1005
214 1018
59 425
154 168
111 624
144 145
3 17
165 833
51 66
103 104
202 217
50 385
137 780
95 109
85 86
143 158
155 169
187 201
177 178
36 50
136 137
58 474
148 767
96 110
159 813
128 142
60 425
118 119
77 78
188 202
151 781
80 501
69 83
169 170
129 143
150 831
161 175
151 152
10 24
62 489
110 111
102 116
202 203
25 40
51 52
162 176
182 899
194 208
43 57
143 144
39 343
103 117
76 490
135 149
183 900
17 32
195 209
77 491
164 886
168 182
24 345
179 884
50 65
77 91
194 1003
73 475
127 684
169 183
79 555
133 764
51 447
25 26
195 1004
110 124
59 424
24 39
47 431
165 832
209 1006
51 65
202 216
197 1013
84 99
93 556
17 18
143 157
176 191
65 503
9 23
112 682
117 132
148 766
213 1021
209 224
151 780
58 73
6 273
38 342
150 165
150 830
204 1039
31 46
72 474
66 449
2 257
91 106
183 198
182 898
209 1001
32 47
84 85
158 159
217 218
164 831
39 342
124 139
176 177
76 489
5 20
17 31
65 80
117 118
219 1041
79 500
109 123
58 477
157 172
209 210
6 21
58 59
201 215
191 192
50 64
98 113
178 887
194 1002
21 275
142 156
127 683
190 205
39 54
51 446
91 92
19 323
224 225
83 97
131 146
183 184
65 448
32 33
175 189
24 38
47 430
72 87
124 125
14 253
209 1005
197 1012
84 98
93 555
116 130
147 764
61 432
164 179
216 217
65 66
176 190
208 222
198 199
57 71
87 588
5 271
157 158
160 810
6 7
117 131
148 765
62 433
149 163
139 140
197 212
98 99
209 223
58 72
6 272
90 104
190 191
39 40
150 164
204 1038
182 196
172 173
126 682
131 132
2 256
123 137
223 224
72 73
183 197
209 1000
32 46
64 78
164 165
164 830
218 1039
124 138
156 170
5 19
44 365
17 259
38 53
65 79
97 111
219 1040
197 198
130 145
112 685
157 171
189 203
6 20
212 1010
71 86
98 112
178 886
38 345
21 274
163 178
12 27
190 204
39 53
208 1003
19 322
72 477
104 119
56 469
131 145
29 363
65 447
13 28
45 60
72 86
145 812
105 120
197 1011
137 152
38 39
61 431
9 241
34 325
164 178
211 1013
39 403
46 61
54 401
78 93
87 587
5 270
138 153
79 503
19 34
71 72
197 211
35 387
79 94
63 77
111 126
12 13
97 627
171 186
20 35
4 18
20 273
52 67
104 105
112 127
13 14
66 505
102 589
204 219
16 257
37 51
53 68
85 100
218 1038
145 160
46 47
26 41
78 79
44 364
17 258
38 52
71 467
86 101
70 84
138 139
19 20
130 144
160 813
178 193
27 42
11 25
79 80
71 85
119 134
171 172
81 507
20 21
52 53
163 177
20 268
12 26
60 75
44 58
112 113
208 1002
126 685
104 118
152 167
204 205
56 468
1 16
29 362
1 254
53 54
33 323
65 446
45 59
93 108
112 625
145 146
145 811
199 1020
26 27
137 151
185 200
61 430
9 240
18 32
34 324
86 87
211 1012
39 402
54 400
43 363
78 92
126 141
5 269
178 179
27 28
138 152
186 201
170 184
19 33
19 271
119 120
35 386
111 125
211 212
45 427
97 626
171 185
203 217
101 587
20 272
52 66
152 153
1 2
94 557
112 126
212 213
144 158
93 94
66 504
102 588
210 1006
204 218
16 256
85 99
185 186
145 159
193 208
177 191
26 40
126 127
59 74
71 466
186 187
118 132
80 505
218 219
178 192
210 224
92 107
119 133
81 506
219 220
168 901
184 199
33 48
125 140
152 166
50 384
137 779
34 49
33 322
66 81
70 469
93 107
112 624
193 194
199 1019
158 173
7 22
59 60
185 199
159 812
60 424
67 82
39 401
99 114
211 1011
43 362
80 500
126 140
159 174
191 206
8 23
53 403
40 55
92 93
19 270
35 385
100 115
62 488
132 147
152 781
184 185
33 34
45 426
192 207
49 387
41 56
25 39
101 586
73 88
125 126
214 1021
111 627
94 556
133 148
165 180
34 35
14 29
66 67
210 1005
74 89
183 899
16 255
106 121
7 8
